91240475716766005915011,10,1,2,011,15,1,2,014,7,1,2,014,9,1,2,015,4,1,2,013,13,1,2,08,11,1,2,07,6,1,2,07,8,1,2,04,5,1,2,010,9,1,2,06,9,1,2,05,14,1,2,06,15,1,2,011,6,1,2,02,15,1,2,010,2,1,2,03,14,1,2,07,13,1,2,010,14,1,2,014,6,1,2,08,4,1,2,01,2,1,2,05,6,1,2,08,15,1,2,012,7,1,2,06,13,1,2,04,15,1,2,04,3,1,2,07,11,1,2,013,13,1,2,012,3,1,2,08,7,1,2,010,11,1,2,013,3,1,2,02,10,1,2,03,9,1,2,015,3,1,2,013,8,1,2,02,7,1,2,04,7,1,2,011,13,1,2,011,8,1,2,02,11,1,2,07,9,1,2,06,3,1,2,04,13,1,2,08,5,1,2,015,10,1,2,012,3,1,2,0